c A SAT instance generated from a 3-CNF formula that had 27 clauses and 9 variables
p cnf 9 27
7 -8 2 0
-5 -9 -1 0
-9 8 -2 0
5 8 6 0
4 -6 5 0
-2 4 6 0
8 -3 -1 0
2 -9 7 0
-4 -3 -1 0
4 2 -1 0
8 -7 5 0
-6 -4 -3 0
-4 9 -3 0
-2 -9 -1 0
-6 -4 -7 0
-1 -5 -8 0
-7 -1 -8 0
-3 -7 4 0
3 -7 -8 0
-1 9 -8 0
3 8 6 0
-7 8 -9 0
5 1 4 0
-7 -8 4 0
1 -7 2 0
-8 -1 -4 0
-2 7 6 0
